row=9;
column=9;

Board=[|0,2,4,0,9,6,0,0,0|6,3,8,4,0,0,0,0,2|9,0,0,0,0,5,0,4,0|7,5,0,0,4,0,8,2,0|0,0,0,5,2,1,3,0,6|0,6,0,0,0,3,4,0,0|0,0,0,1,6,0,0,8,0|4,0,6,3,7,0,0,1,0|0,0,1,9,5,0,7,6,4|];
